language ESSENCE' 1.0
$ minion Nodes: 1
$ minion TotalTime: 0.000485
$ Savile Row TotalTime: 0.211
letting pain_tuple1 be [1, 1;int(1,2)]
letting pain_tuple2_tuple1 be [[12;int(1)], 
[12;int(1)];int(1,2)]
letting pain_tuple2_tuple3 be [[[55, 99;int(1,2)];int(1)], 
[[55, 99;int(1,2)];int(1)];int(1,2)]
letting pain_tuple2_tuple2_tuple2 be [[33;int(1)], 
[33;int(1)];int(1,2)]
letting pain_tuple2_tuple2_tuple1 be [[44;int(1)], 
[44;int(1)];int(1,2)]
